p edge 28 74
e 1 5
e 1 6
e 1 8
e 1 9
e 1 10
e 1 27
e 1 28
e 2 11
e 2 12
e 2 13
e 2 14
e 2 15
e 3 16
e 3 17
e 3 18
e 3 19
e 3 20
e 4 21
e 4 22
e 4 23
e 4 24
e 4 25
e 5 6
e 5 8
e 5 9
e 5 10
e 5 27
e 5 28
e 6 8
e 6 9
e 6 10
e 6 27
e 6 28
e 7 26
e 8 9
e 8 10
e 8 27
e 8 28
e 9 10
e 9 27
e 9 28
e 10 27
e 10 28
e 11 12
e 11 13
e 11 14
e 11 15
e 12 13
e 12 14
e 12 15
e 13 14
e 13 15
e 14 15
e 16 17
e 16 18
e 16 19
e 16 20
e 17 18
e 17 19
e 17 20
e 18 19
e 18 20
e 19 20
e 21 22
e 21 23
e 21 24
e 21 25
e 22 23
e 22 24
e 22 25
e 23 24
e 23 25
e 24 25
e 27 28
